c Result of efficient AIG-to-CNF conversion using package CNF
p cnf 495 1750
2 3 -223 0
2 491 3 -4 0
-2 -3 0
-2 -491 223 0
-2 4 223 0
-3 463 464 465 0
3 -463 0
3 -465 0
3 -464 0
-4 -217 0
-4 -492 5 0
-4 5 221 0
4 -5 217 0
4 492 217 -221 0
5 492 -6 0
-5 -492 0
-5 6 0
6 493 -7 0
-6 -493 0
-6 7 0
7 494 -8 0
7 -494 -213 0
-7 -494 213 0
-7 494 8 0
8 -9 120 0
-8 9 0
-8 -120 0
9 10 -55 0
-9 -10 0
-9 55 0
-10 11 39 0
-10 26 39 0
10 -39 0
10 -11 -26 0
11 -490 12 0
-11 490 0
-11 -12 0
-12 489 13 14 16 0
12 -489 0
12 -16 0
12 -14 0
12 -13 0
-13 466 467 468 469 0
13 -469 0
13 -468 0
13 -466 0
13 -467 0
-14 3 15 0
14 -3 0
14 -15 0
-15 475 476 0
15 -475 0
15 -476 0
-16 470 17 18 23 0
16 -470 0
16 -23 0
16 -18 0
16 -17 0
-17 481 482 0
17 -481 0
17 -482 0
-18 19 20 0
18 -19 0
18 -20 0
-19 483 484 0
19 -483 0
19 -484 0
-20 21 22 0
20 -21 0
20 -22 0
-21 485 486 0
21 -485 0
21 -486 0
-22 487 488 0
22 -487 0
22 -488 0
-23 471 477 24 25 0
23 -471 0
23 -25 0
23 -24 0
23 -477 0
-24 478 479 480 0
24 -478 0
24 -480 0
24 -479 0
-25 472 473 474 0
25 -472 0
25 -474 0
25 -473 0
26 491 -27 0
26 -491 -34 0
-26 -491 34 0
-26 491 27 0
27 492 -28 0
27 -492 -31 0
-27 -492 31 0
-27 492 28 0
28 493 -29 0
28 -493 -30 0
-28 -493 30 0
-28 493 29 0
29 -443 494 0
29 -442 -494 0
-29 443 494 0
-29 442 -494 0
30 -441 494 0
30 -440 -494 0
-30 441 494 0
-30 440 -494 0
31 493 -32 0
31 -493 -33 0
-31 -493 33 0
-31 493 32 0
32 -439 494 0
32 -438 -494 0
-32 439 494 0
-32 438 -494 0
33 -437 494 0
33 -436 -494 0
-33 437 494 0
-33 436 -494 0
34 492 -35 0
34 -492 -38 0
-34 -492 38 0
-34 492 35 0
35 493 -36 0
35 -493 -37 0
-35 -493 37 0
-35 493 36 0
36 -435 494 0
36 -434 -494 0
-36 435 494 0
-36 434 -494 0
37 -433 494 0
37 -432 -494 0
-37 433 494 0
-37 432 -494 0
38 -431 493 494 0
-38 431 0
-38 -494 0
-38 -493 0
39 491 -40 47 0
39 -491 47 -48 0
-39 -47 0
-39 -491 48 0
-39 491 40 0
40 492 -41 0
40 -492 -44 0
-40 -492 44 0
-40 492 41 0
41 -493 -42 0
41 493 -43 0
-41 493 43 0
-41 -493 42 0
42 -457 494 0
42 -456 -494 0
-42 457 494 0
-42 456 -494 0
43 -459 494 0
43 -458 -494 0
-43 459 494 0
-43 458 -494 0
44 493 -45 0
44 -493 -46 0
-44 -493 46 0
-44 493 45 0
45 -455 494 0
45 -454 -494 0
-45 455 494 0
-45 454 -494 0
46 -453 494 0
46 -452 -494 0
-46 453 494 0
-46 452 -494 0
-47 490 12 0
47 -490 0
47 -12 0
48 492 -49 0
48 -492 -52 0
-48 -492 52 0
-48 492 49 0
49 493 -50 0
49 -493 -51 0
-49 -493 51 0
-49 493 50 0
50 -451 494 0
50 -450 -494 0
-50 451 494 0
-50 450 -494 0
51 -449 494 0
51 -448 -494 0
-51 449 494 0
-51 448 -494 0
52 493 -53 0
52 -493 -54 0
-52 -493 54 0
-52 493 53 0
53 -447 494 0
53 -446 -494 0
-53 447 494 0
-53 446 -494 0
54 -445 494 0
54 -444 -494 0
-54 445 494 0
-54 444 -494 0
55 56 -85 0
-55 -56 0
-55 85 0
-56 11 70 0
-56 57 70 0
56 -70 0
56 -11 -57 0
57 491 -58 0
57 -491 -65 0
-57 -491 65 0
-57 491 58 0
58 492 -59 0
58 -492 -62 0
-58 -492 62 0
-58 492 59 0
59 493 -60 0
59 -493 -61 0
-59 -493 61 0
-59 493 60 0
60 -444 494 0
60 -443 -494 0
-60 444 494 0
-60 443 -494 0
61 -442 494 0
61 -441 -494 0
-61 442 494 0
-61 441 -494 0
62 493 -63 0
62 -493 -64 0
-62 -493 64 0
-62 493 63 0
63 -440 494 0
63 -439 -494 0
-63 440 494 0
-63 439 -494 0
64 -438 494 0
64 -437 -494 0
-64 438 494 0
-64 437 -494 0
65 492 -66 0
65 -492 -69 0
-65 -492 69 0
-65 492 66 0
66 493 -67 0
66 -493 -68 0
-66 -493 68 0
-66 493 67 0
67 -436 494 0
67 -435 -494 0
-67 436 494 0
-67 435 -494 0
68 -434 494 0
68 -433 -494 0
-68 434 494 0
-68 433 -494 0
69 -431 493 -494 0
69 -432 493 494 0
-69 -493 0
-69 431 -494 0
-69 432 494 0
70 -491 47 -78 0
70 491 47 -71 0
-70 -47 0
-70 -491 78 0
-70 491 71 0
71 492 -72 0
71 -492 -75 0
-71 -492 75 0
-71 492 72 0
72 -493 -73 0
72 493 -74 0
-72 493 74 0
-72 -493 73 0
73 -458 494 0
73 -457 -494 0
-73 458 494 0
-73 457 -494 0
74 -460 494 0
74 -459 -494 0
-74 460 494 0
-74 459 -494 0
75 493 -76 0
75 -493 -77 0
-75 -493 77 0
-75 493 76 0
76 -456 494 0
76 -455 -494 0
-76 456 494 0
-76 455 -494 0
77 -454 494 0
77 -453 -494 0
-77 454 494 0
-77 453 -494 0
78 492 -79 0
78 -492 -82 0
-78 -492 82 0
-78 492 79 0
79 493 -80 0
79 -493 -81 0
-79 -493 81 0
-79 493 80 0
80 -452 494 0
80 -451 -494 0
-80 452 494 0
-80 451 -494 0
81 -450 494 0
81 -449 -494 0
-81 450 494 0
-81 449 -494 0
82 493 -83 0
82 -493 -84 0
-82 -493 84 0
-82 493 83 0
83 -448 494 0
83 -447 -494 0
-83 448 494 0
-83 447 -494 0
84 -446 494 0
84 -445 -494 0
-84 446 494 0
-84 445 -494 0
85 86 -102 0
-85 -86 0
-85 102 0
-86 11 94 0
-86 87 94 0
86 -94 0
86 -11 -87 0
87 491 -88 0
87 -491 -91 0
-87 -491 91 0
-87 491 88 0
88 492 -89 0
88 -492 -90 0
-88 -492 90 0
-88 492 89 0
89 -493 -29 0
89 493 -54 0
-89 493 54 0
-89 -493 29 0
90 493 -30 0
90 -493 -32 0
-90 -493 32 0
-90 493 30 0
91 492 -92 0
91 -492 -93 0
-91 -492 93 0
-91 492 92 0
92 493 -33 0
92 -493 -36 0
-92 -493 36 0
-92 493 33 0
93 493 -37 0
93 -431 -493 494 0
-93 493 37 0
-93 -493 -494 0
-93 431 -493 0
94 -491 47 -99 0
94 491 47 -95 0
-94 -47 0
-94 -491 99 0
-94 491 95 0
95 492 -96 0
95 -492 -98 0
-95 -492 98 0
-95 492 96 0
96 -493 -43 0
96 493 -97 0
-96 493 97 0
-96 -493 43 0
97 -461 494 0
97 -460 -494 0
-97 461 494 0
-97 460 -494 0
98 493 -42 0
98 -493 -45 0
-98 -493 45 0
-98 493 42 0
99 492 -100 0
99 -492 -101 0
-99 -492 101 0
-99 492 100 0
100 493 -46 0
100 -493 -50 0
-100 -493 50 0
-100 493 46 0
101 493 -51 0
101 -493 -53 0
-101 -493 53 0
-101 493 51 0
102 -432 103 0
102 -431 -103 0
-102 431 -103 0
-102 432 103 0
-103 11 112 0
-103 104 112 0
103 -112 0
103 -11 -104 0
104 491 -105 0
104 -491 -108 0
-104 -491 108 0
-104 491 105 0
105 492 -106 0
105 -492 -107 0
-105 -492 107 0
-105 492 106 0
106 -493 -60 0
106 493 -84 0
-106 493 84 0
-106 -493 60 0
107 493 -61 0
107 -493 -63 0
-107 -493 63 0
-107 493 61 0
108 492 -109 0
108 -492 -110 0
-108 -492 110 0
-108 492 109 0
109 493 -64 0
109 -493 -67 0
-109 -493 67 0
-109 493 64 0
110 493 -68 0
110 -493 -111 0
-110 -493 111 0
-110 493 68 0
111 -432 494 0
111 -431 -494 0
-111 432 494 0
-111 431 -494 0
112 -491 47 -117 0
112 491 47 -113 0
-112 -47 0
-112 -491 117 0
-112 491 113 0
113 492 -114 0
113 -492 -116 0
-113 -492 116 0
-113 492 114 0
114 -493 -74 0
114 493 -115 0
-114 493 115 0
-114 -493 74 0
115 -462 494 0
115 -461 -494 0
-115 462 494 0
-115 461 -494 0
116 493 -73 0
116 -493 -76 0
-116 -493 76 0
-116 493 73 0
117 492 -118 0
117 -492 -119 0
-117 -492 119 0
-117 492 118 0
118 493 -77 0
118 -493 -80 0
-118 -493 80 0
-118 493 77 0
119 493 -81 0
119 -493 -83 0
-119 -493 83 0
-119 493 81 0
-120 121 210 0
120 -121 0
120 -210 0
-121 122 176 189 194 0
121 -194 0
121 -122 0
121 -176 0
121 -189 0
-122 123 134 156 165 0
122 -134 0
122 -156 0
122 -123 0
122 -165 0
123 124 127 129 -131 0
-123 131 0
-123 -124 0
-123 -129 0
-123 -127 0
-124 472 473 18 125 0
124 -472 0
124 -125 0
124 -18 0
124 -473 0
-125 24 126 0
125 -24 0
125 -126 0
-126 477 15 0
126 -477 0
126 -15 0
-127 474 128 0
127 -474 0
127 -128 0
-128 489 17 0
128 -489 0
128 -17 0
-129 491 130 0
-129 -88 130 0
-129 -105 130 0
129 -130 0
129 -491 88 105 0
-130 470 471 3 13 0
130 -470 0
130 -13 0
130 -3 0
130 -471 0
131 490 -491 0
131 490 -133 0
131 -490 491 -132 0
-131 -490 -491 0
-131 -490 132 0
-131 490 491 133 0
-132 91 108 0
132 -91 0
132 -108 0
-133 99 117 0
133 -99 0
133 -117 0
-134 -136 145 0
-134 138 145 0
-134 -135 145 0
134 -145 0
134 135 136 -138 0
-135 490 491 0
135 -490 0
135 -491 0
-136 3 137 0
136 -3 0
136 -137 0
-137 469 470 471 0
137 -469 0
137 -471 0
137 -470 0
138 139 142 -144 0
138 139 142 -143 0
-138 -139 0
-138 -142 0
-138 143 144 0
-139 125 140 0
139 -125 0
139 -140 0
-140 25 141 0
140 -25 0
140 -141 0
-141 466 467 468 0
141 -466 0
141 -468 0
141 -467 0
-142 18 128 0
142 -18 0
142 -128 0
143 492 -69 0
-143 -492 0
-143 69 0
144 -431 492 493 494 0
-144 -494 0
-144 -493 0
-144 431 0
-144 -492 0
145 491 140 -146 0
145 491 140 -152 0
-145 -491 0
-145 -140 0
-145 146 152 0
146 24 147 -150 151 0
-146 -151 0
-146 -24 0
-146 150 0
-146 -147 0
-147 477 15 148 149 0
147 -477 0
147 -149 0
147 -148 0
147 -15 0
-148 489 490 21 0
148 -21 0
148 -490 0
148 -489 0
-149 17 22 0
149 -17 0
149 -22 0
150 492 -110 0
-150 -492 0
-150 110 0
-151 19 136 0
151 -19 0
151 -136 0
152 3 19 -153 154 0
-152 -154 0
-152 -3 0
-152 153 0
-152 -19 0
153 492 -93 0
-153 -492 0
-153 93 0
-154 126 148 149 155 0
154 -155 0
154 -126 0
154 -149 0
154 -148 0
-155 24 137 0
155 -24 0
155 -137 0
156 490 23 -159 0
156 23 -157 -159 0
-156 159 0
-156 -23 0
-156 -490 157 0
157 -491 -144 0
157 491 -158 0
-157 491 158 0
-157 -491 144 0
158 492 -31 0
158 -492 -35 0
-158 -492 35 0
-158 492 31 0
159 160 142 -161 164 0
-159 -164 0
-159 -160 0
-159 -142 0
-159 161 0
-160 469 470 0
160 -469 0
160 -470 0
-161 490 -491 163 0
-161 490 491 162 0
161 -490 0
161 -491 -163 0
161 491 -162 0
162 492 -44 0
162 -492 -49 0
-162 -492 49 0
-162 492 44 0
163 -492 -28 0
163 492 -52 0
-163 492 52 0
-163 -492 28 0
-164 14 141 0
164 -14 0
164 -141 0
-165 166 171 0
-165 166 -170 0
-165 -155 166 0
165 -166 0
165 155 170 -171 0
166 139 167 168 -169 0
-166 169 0
-166 -139 0
-166 -168 0
-166 -167 0
-167 -144 151 0
-167 490 151 0
167 -151 0
167 -490 144 0
-168 20 128 0
168 -20 0
168 -128 0
169 491 -163 0
169 -490 491 0
169 490 -491 -158 0
-169 -491 158 0
-169 490 491 163 0
-169 -490 -491 0
-170 477 19 -143 0
-170 477 490 19 0
170 -477 0
170 -19 0
170 -490 143 0
171 -135 173 175 0
171 -172 173 175 0
-171 -175 0
-171 -173 0
-171 135 172 0
172 -492 -59 0
172 492 -82 0
-172 492 82 0
-172 -492 59 0
173 -490 -491 0
173 -491 174 0
-173 491 0
-173 490 -174 0
174 492 -62 0
174 -492 -66 0
-174 -492 66 0
-174 492 62 0
-175 25 164 168 0
175 -25 0
175 -164 0
175 -168 0
-176 177 -182 0
-176 177 183 186 0
176 -177 0
176 182 -183 0
176 182 -186 0
177 490 -178 0
177 491 -153 -178 0
-177 178 0
-177 -490 153 0
-177 -490 -491 0
178 491 12 -179 0
178 12 -179 -181 0
-178 -12 0
-178 179 0
-178 -491 181 0
-179 135 180 0
179 -135 0
179 -180 0
180 -492 -89 0
180 492 -101 0
-180 492 101 0
-180 -492 89 0
181 492 -90 0
181 -492 -92 0
-181 -492 92 0
-181 492 90 0
-182 3 141 0
182 -3 0
182 -141 0
183 491 184 -185 0
183 -58 184 -185 0
-183 185 0
-183 -184 0
-183 -491 58 0
-184 490 127 0
-184 491 -65 127 0
184 -127 0
184 -490 65 0
184 -490 -491 0
185 -78 124 137 0
185 124 -135 137 0
-185 -137 0
-185 -124 0
-185 78 135 0
186 -135 187 188 0
186 -48 187 188 0
-186 -188 0
-186 -187 0
-186 48 135 0
187 -491 27 0
187 -490 34 0
187 -490 -491 0
-187 491 -34 0
-187 490 -27 0
-187 490 491 0
-188 15 23 160 142 0
188 -142 0
188 -15 0
188 -160 0
188 -23 0
189 47 -87 0
189 47 -191 0
189 47 -190 0
-189 -47 0
-189 87 190 191 0
-190 26 57 104 0
190 -26 0
190 -104 0
190 -57 0
-191 157 192 0
191 -157 0
191 -192 0
192 -491 -150 0
192 491 -193 0
-192 491 193 0
-192 -491 150 0
193 492 -107 0
193 -492 -109 0
-193 -492 109 0
-193 492 107 0
-194 -12 200 0
-194 195 198 200 0
194 -200 0
194 12 -195 0
194 12 -198 0
-195 -490 -491 0
-195 490 196 0
-195 -490 150 0
195 490 -196 0
195 -490 491 -150 0
-196 491 197 0
-196 -491 193 0
196 -491 -193 0
196 491 -197 0
197 -492 -106 0
197 492 -119 0
-197 492 119 0
-197 -492 106 0
-198 491 199 0
-198 -491 143 153 0
198 -491 -143 0
198 491 -199 0
198 -491 -153 0
-199 174 181 0
199 -174 0
199 -181 0
-200 201 204 0
-200 -47 204 0
200 -204 0
200 47 -201 0
-201 491 202 0
-201 -491 172 180 0
201 -491 -172 0
201 491 -202 0
201 -491 -180 0
-202 -492 203 0
-202 492 75 98 0
202 492 -75 0
202 -492 -203 0
202 492 -98 0
-203 79 100 0
203 -79 0
203 -100 0
204 126 205 206 -207 0
-204 -206 0
-204 207 0
-204 -126 0
-204 -205 0
-205 491 19 24 0
205 -24 0
205 -19 0
205 -491 0
-206 490 17 21 0
206 -21 0
206 -17 0
206 -490 0
-207 -208 0
-207 34 65 132 0
207 -132 208 0
207 -65 208 0
207 -34 208 0
-208 22 137 182 209 0
208 -209 0
208 -22 0
208 -182 0
208 -137 0
-209 489 25 0
209 -489 0
209 -25 0
-210 11 211 0
-210 192 211 0
210 -211 0
210 -11 -192 0
211 491 47 -212 0
211 -491 47 -197 0
-211 -47 0
-211 -491 197 0
-211 491 212 0
212 492 -116 0
212 -492 -118 0
-212 -492 118 0
-212 492 116 0
213 120 -214 0
-213 -120 0
-213 214 0
214 10 -215 0
-214 -10 0
-214 215 0
215 56 -216 0
-215 -56 0
-215 216 0
216 -431 86 103 0
-216 431 0
-216 -86 0
-216 -103 0
-217 466 467 218 0
217 -218 0
217 -467 0
217 -466 0
-218 19 22 206 219 0
218 -219 0
218 -19 0
218 -206 0
218 -22 0
-219 489 25 125 220 0
219 -489 0
219 -220 0
219 -125 0
219 -25 0
-220 468 469 470 471 0
220 -471 0
220 -470 0
220 -468 0
220 -469 0
221 493 -222 0
-221 -493 0
-221 222 0
222 494 -213 0
-222 -494 0
-222 213 0
223 466 -224 0
-223 -466 0
-223 224 0
-224 225 -323 0
-224 225 327 342 0
224 -225 0
224 323 -327 0
224 323 -342 0
225 467 218 -226 0
-225 -467 0
-225 -218 0
-225 226 0
-226 -491 317 0
-226 227 312 317 0
226 -317 0
226 491 -312 0
226 491 -227 0
-227 493 228 269 0
-227 -493 258 269 0
227 -269 0
227 -493 -258 0
227 493 -228 0
-228 494 229 250 0
-228 -494 229 241 0
228 -229 0
228 494 -250 0
228 -494 -241 0
229 120 -230 0
-229 -120 0
-229 230 0
230 10 -231 0
230 -10 -238 0
-230 -10 238 0
-230 10 231 0
231 56 -232 0
231 -56 -235 0
-231 -56 235 0
-231 56 232 0
232 86 -233 0
232 -86 -234 0
-232 -86 234 0
-232 86 233 0
233 -441 103 0
233 -440 -103 0
-233 440 -103 0
-233 441 103 0
234 -439 103 0
234 -438 -103 0
-234 438 -103 0
-234 439 103 0
235 86 -236 0
235 -86 -237 0
-235 -86 237 0
-235 86 236 0
236 -437 103 0
236 -436 -103 0
-236 436 -103 0
-236 437 103 0
237 -435 103 0
237 -434 -103 0
-237 434 -103 0
-237 435 103 0
238 56 -239 0
-238 -56 0
-238 239 0
239 86 -240 0
239 -431 -86 103 0
-239 -86 -103 0
-239 86 240 0
-239 431 -86 0
240 -433 103 0
240 -432 -103 0
-240 432 -103 0
-240 433 103 0
241 120 -242 0
-241 -120 0
-241 242 0
242 -10 -55 0
242 10 -243 0
-242 10 243 0
-242 -10 55 0
243 56 -244 0
243 -56 -247 0
-243 -56 247 0
-243 56 244 0
244 86 -245 0
244 -86 -246 0
-244 -86 246 0
-244 86 245 0
245 -440 103 0
245 -439 -103 0
-245 439 -103 0
-245 440 103 0
246 -438 103 0
246 -437 -103 0
-246 437 -103 0
-246 438 103 0
247 86 -248 0
247 -86 -249 0
-247 -86 249 0
-247 86 248 0
248 -436 103 0
248 -435 -103 0
-248 435 -103 0
-248 436 103 0
249 -434 103 0
249 -433 -103 0
-249 433 -103 0
-249 434 103 0
250 120 -251 0
-250 -120 0
-250 251 0
251 10 -252 0
251 -10 -256 0
-251 -10 256 0
-251 10 252 0
252 56 -253 0
252 -56 -255 0
-252 -56 255 0
-252 56 253 0
253 -86 -245 0
253 86 -254 0
-253 86 254 0
-253 -86 245 0
254 -442 103 0
254 -441 -103 0
-254 441 -103 0
-254 442 103 0
255 86 -246 0
255 -86 -248 0
-255 -86 248 0
-255 86 246 0
256 56 -257 0
-256 -56 0
-256 257 0
257 -86 -102 0
257 86 -249 0
-257 86 249 0
-257 -86 102 0
-258 259 265 0
258 -259 0
258 -265 0
259 494 -241 0
259 -494 -260 0
-259 -494 260 0
-259 494 241 0
260 120 -261 0
-260 -120 0
-260 261 0
261 -10 -215 0
261 10 -262 0
-261 10 262 0
-261 -10 215 0
262 56 -263 0
262 -56 -264 0
-262 -56 264 0
-262 56 263 0
263 86 -234 0
263 -86 -236 0
-263 -86 236 0
-263 86 234 0
264 86 -237 0
264 -86 -240 0
-264 -86 240 0
-264 86 237 0
265 494 -260 0
265 -494 -266 0
-265 -494 266 0
-265 494 260 0
266 120 -267 0
-266 -120 0
-266 267 0
267 10 -268 0
-267 -10 0
-267 268 0
268 56 -255 0
268 -56 -257 0
-268 -56 257 0
-268 56 255 0
269 -492 -298 0
269 492 -270 0
269 -492 -310 0
-269 492 270 0
-269 -492 298 310 0
-270 271 285 0
270 -271 0
270 -285 0
-271 -493 228 0
-271 493 272 0
271 493 -272 0
271 -493 -228 0
-272 -494 250 273 0
-272 494 273 279 0
272 -273 0
272 494 -279 0
272 -494 -250 0
273 120 -274 0
-273 -120 0
-273 274 0
274 10 -275 0
274 -10 -278 0
-274 -10 278 0
-274 10 275 0
275 -56 -263 0
275 56 -276 0
-275 56 276 0
-275 -56 263 0
276 -86 -233 0
276 86 -277 0
-276 86 277 0
-276 -86 233 0
277 -443 103 0
277 -442 -103 0
-277 442 -103 0
-277 443 103 0
278 -56 -216 0
278 56 -264 0
-278 56 264 0
-278 -56 216 0
279 120 -280 0
-279 -120 0
-279 280 0
280 10 -281 0
280 -10 -284 0
-280 -10 284 0
-280 10 281 0
281 -56 -244 0
281 56 -282 0
-281 56 282 0
-281 -56 244 0
282 -86 -254 0
282 86 -283 0
-282 86 283 0
-282 -86 254 0
283 -444 103 0
283 -443 -103 0
-283 443 -103 0
-283 444 103 0
284 -56 -85 0
284 56 -247 0
-284 56 247 0
-284 -56 85 0
285 493 -286 0
285 -493 -272 0
-285 -493 272 0
-285 493 286 0
-286 -494 279 287 0
-286 494 287 293 0
286 -287 0
286 494 -293 0
286 -494 -279 0
287 120 -288 0
-287 -120 0
-287 288 0
288 10 -289 0
288 -10 -292 0
-288 -10 292 0
-288 10 289 0
289 -56 -232 0
289 56 -290 0
-289 56 290 0
-289 -56 232 0
290 -86 -277 0
290 86 -291 0
-290 86 291 0
-290 -86 277 0
291 -445 103 0
291 -444 -103 0
-291 444 -103 0
-291 445 103 0
292 56 -235 0
292 -56 -239 0
-292 -56 239 0
-292 56 235 0
293 120 -294 0
-293 -120 0
-293 294 0
294 -10 -268 0
294 10 -295 0
-294 10 295 0
-294 -10 268 0
295 -56 -253 0
295 56 -296 0
-295 56 296 0
-295 -56 253 0
296 -86 -283 0
296 86 -297 0
-296 86 297 0
-296 -86 283 0
297 -446 103 0
297 -445 -103 0
-297 445 -103 0
-297 446 103 0
298 493 -299 0
298 -493 -305 0
298 493 -304 0
-298 -493 305 0
-298 493 299 304 0
299 494 -300 0
299 -494 -302 0
-299 -494 302 0
-299 494 300 0
300 120 -301 0
-300 -120 0
-300 301 0
301 10 -292 0
-301 -10 0
-301 292 0
302 120 -303 0
-302 -120 0
-302 303 0
303 10 -284 0
-303 -10 0
-303 284 0
304 494 -266 0
304 -494 -300 0
-304 -494 300 0
-304 494 266 0
-305 -494 306 308 0
-305 494 302 306 0
305 -306 0
305 494 -302 0
305 -494 -308 0
306 120 -307 0
-306 -120 0
-306 307 0
307 10 -278 0
-307 -10 0
-307 278 0
308 120 -309 0
-308 -120 0
-308 309 0
309 10 -256 0
-309 -10 0
-309 256 0
-310 493 259 311 0
-310 -493 304 311 0
310 -311 0
310 493 -259 0
310 -493 -304 0
311 493 -265 0
311 -493 -299 0
-311 -493 299 0
-311 493 265 0
-312 492 310 0
-312 -492 313 0
312 -492 -313 0
312 492 -310 0
313 -493 -314 0
313 493 -305 0
-313 493 305 0
-313 -493 314 0
-314 -494 8 315 0
-314 494 308 315 0
314 -315 0
314 494 -308 0
314 -494 -8 0
315 120 -316 0
-315 -120 0
-315 316 0
316 10 -238 0
-316 -10 0
-316 238 0
-317 -492 318 0
-317 298 313 318 0
317 -318 0
317 492 -298 0
317 492 -313 0
-318 492 319 0
-318 6 221 319 0
318 -319 0
318 -492 -221 0
318 -492 -6 0
-319 320 322 0
-319 491 322 0
319 -322 0
319 -491 -320 0
-320 5 321 0
320 -5 0
320 -321 0
321 492 -221 0
-321 -492 0
-321 221 0
322 -493 -7 0
322 493 -314 0
322 -493 -222 0
-322 493 314 0
-322 -493 7 222 0
-323 467 21 324 326 0
323 -467 0
323 -326 0
323 -324 0
323 -21 0
-324 489 22 25 325 0
324 -489 0
324 -325 0
324 -25 0
324 -22 0
-325 15 17 220 0
325 -15 0
325 -17 0
325 -220 0
-326 477 19 24 0
326 -24 0
326 -19 0
326 -477 0
-327 -491 328 0
-327 320 328 0
-327 490 328 0
327 -328 0
327 -490 491 -320 0
328 490 491 -329 0
328 490 -491 -312 0
-328 -490 0
-328 -491 312 0
-328 491 329 0
329 492 -330 0
329 -492 -271 0
-329 -492 271 0
-329 492 330 0
-330 -493 286 0
-330 493 331 0
330 493 -331 0
330 -493 -286 0
-331 -494 293 337 0
-331 494 332 337 0
331 -337 0
331 494 -332 0
331 -494 -293 0
332 -9 121 -210 0
332 121 210 -333 0
-332 -121 0
-332 9 -210 0
-332 210 333 0
333 -10 -243 0
333 10 -334 0
-333 10 334 0
-333 -10 243 0
334 -56 -282 0
334 56 -335 0
-334 56 335 0
-334 -56 282 0
335 -86 -297 0
335 86 -336 0
-335 86 336 0
-335 -86 297 0
336 -448 103 0
336 -447 -103 0
-336 447 -103 0
-336 448 103 0
337 121 210 -338 0
337 121 -210 -214 0
-337 -121 0
-337 210 338 0
-337 -210 214 0
338 -10 -262 0
338 10 -339 0
-338 10 339 0
-338 -10 262 0
339 -56 -276 0
339 56 -340 0
-339 56 340 0
-339 -56 276 0
340 -86 -291 0
340 86 -341 0
-340 86 341 0
-340 -86 291 0
341 -447 103 0
341 -446 -103 0
-341 446 -103 0
-341 447 103 0
342 490 -343 0
342 -226 -343 0
-342 343 0
-342 -490 226 0
-343 491 344 381 0
-343 -491 344 357 0
343 -344 0
343 -491 -357 0
343 491 -381 0
-344 492 345 0
-344 285 330 345 0
344 -345 0
344 -492 -330 0
344 -492 -285 0
-345 490 493 346 0
-345 490 -493 331 0
345 -490 0
345 -493 -331 0
345 493 -346 0
-346 -494 332 352 0
-346 494 347 352 0
346 -352 0
346 494 -347 0
346 -494 -332 0
347 121 210 -348 0
347 121 -210 -309 0
-347 -121 0
-347 210 348 0
-347 -210 309 0
348 -10 -252 0
348 10 -349 0
-348 10 349 0
-348 -10 252 0
349 -56 -296 0
349 56 -350 0
-349 56 350 0
-349 -56 296 0
350 -86 -336 0
350 86 -351 0
-350 86 351 0
-350 -86 336 0
351 -450 103 0
351 -449 -103 0
-351 449 -103 0
-351 450 103 0
352 121 210 -353 0
352 121 -210 -316 0
-352 -121 0
-352 210 353 0
-352 -210 316 0
353 -10 -231 0
353 10 -354 0
-353 10 354 0
-353 -10 231 0
354 -56 -290 0
354 56 -355 0
-354 56 355 0
-354 -56 290 0
355 -86 -341 0
355 86 -356 0
-355 86 356 0
-355 -86 341 0
356 -449 103 0
356 -448 -103 0
-356 448 -103 0
-356 449 103 0
-357 227 329 358 0
-357 -492 227 329 0
357 -227 0
357 -329 0
357 492 -358 0
-358 494 359 364 0
-358 -494 347 364 0
358 -364 0
358 494 -359 0
358 -494 -347 0
359 121 210 -360 0
359 121 -210 -303 0
-359 -121 0
-359 210 360 0
-359 -210 303 0
360 -10 -281 0
360 10 -361 0
-360 10 361 0
-360 -10 281 0
361 -56 -335 0
361 56 -362 0
-361 56 362 0
-361 -56 335 0
362 -86 -351 0
362 86 -363 0
-362 86 363 0
-362 -86 351 0
363 -452 103 0
363 -451 -103 0
-363 451 -103 0
-363 452 103 0
-364 493 365 370 0
-364 -493 346 365 0
364 -365 0
364 -493 -346 0
364 493 -370 0
365 121 210 -366 0
365 121 -210 -307 0
-365 -121 0
-365 210 366 0
-365 -210 307 0
366 -10 -275 0
366 10 -367 0
-366 10 367 0
-366 -10 275 0
367 -56 -340 0
367 56 -368 0
-367 56 368 0
-367 -56 340 0
368 -86 -356 0
368 86 -369 0
-368 86 369 0
-368 -86 356 0
369 -451 103 0
369 -450 -103 0
-369 450 -103 0
-369 451 103 0
-370 -494 359 371 0
-370 494 371 376 0
370 -371 0
370 494 -376 0
370 -494 -359 0
371 121 210 -372 0
371 121 -210 -301 0
-371 -121 0
-371 210 372 0
-371 -210 301 0
372 -10 -289 0
372 10 -373 0
-372 10 373 0
-372 -10 289 0
373 -56 -355 0
373 56 -374 0
-373 56 374 0
-373 -56 355 0
374 -86 -369 0
374 86 -375 0
-374 86 375 0
-374 -86 369 0
375 -453 103 0
375 -452 -103 0
-375 452 -103 0
-375 453 103 0
376 121 210 -377 0
376 121 -210 -267 0
-376 -121 0
-376 210 377 0
-376 -210 267 0
377 -10 -295 0
377 10 -378 0
-377 10 378 0
-377 -10 295 0
378 -56 -350 0
378 56 -379 0
-378 56 379 0
-378 -56 350 0
379 -86 -363 0
379 86 -380 0
-379 86 380 0
-379 -86 363 0
380 -454 103 0
380 -453 -103 0
-380 453 -103 0
-380 454 103 0
-381 -492 358 382 0
-381 358 382 407 0
381 -382 0
381 -358 0
381 492 -407 0
-382 -493 370 401 0
-382 493 383 401 0
382 -401 0
382 -493 -370 0
382 493 -383 0
-383 -121 0
-383 494 389 0
-383 384 389 0
383 121 -389 0
383 -494 121 -384 0
-384 210 385 0
-384 -210 242 0
384 -210 -242 0
384 210 -385 0
-385 10 386 0
-385 -10 334 0
385 -10 -334 0
385 10 -386 0
-386 56 387 0
-386 -56 362 0
386 -56 -362 0
386 56 -387 0
387 -86 -380 0
387 86 -388 0
-387 86 388 0
-387 -86 380 0
388 -456 103 0
388 -455 -103 0
-388 455 -103 0
-388 456 103 0
-389 -210 230 395 0
-389 210 390 395 0
389 -395 0
389 -210 -230 0
389 210 -390 0
-390 10 391 0
-390 -10 354 0
390 -10 -354 0
390 10 -391 0
-391 56 392 0
-391 -56 374 0
391 -56 -374 0
391 56 -392 0
392 86 -393 0
392 -86 -394 0
-392 -86 394 0
-392 86 393 0
393 -457 103 0
393 -456 -103 0
-393 456 -103 0
-393 457 103 0
394 -455 103 0
394 -454 -103 0
-394 454 -103 0
-394 455 103 0
395 494 -396 0
-395 -494 0
-395 396 0
396 -210 -251 0
396 210 -397 0
-396 210 397 0
-396 -210 251 0
397 -10 -349 0
397 10 -398 0
-397 10 398 0
-397 -10 349 0
398 -56 -379 0
398 56 -399 0
-398 56 399 0
-398 -56 379 0
399 -86 -388 0
399 86 -400 0
-399 86 400 0
-399 -86 388 0
400 -458 103 0
400 -457 -103 0
-400 457 -103 0
-400 458 103 0
-401 -494 376 403 0
-401 494 402 403 0
401 -403 0
401 494 -402 0
401 -494 -376 0
402 121 -210 -242 0
402 121 210 -385 0
-402 -121 0
-402 210 385 0
-402 -210 242 0
403 121 210 -404 0
403 121 -210 -261 0
-403 -121 0
-403 210 404 0
-403 -210 261 0
404 -10 -339 0
404 10 -405 0
-404 10 405 0
-404 -10 339 0
405 -56 -368 0
405 56 -406 0
-405 56 406 0
-405 -56 368 0
406 -86 -375 0
406 86 -394 0
-406 86 394 0
-406 -86 375 0
-407 493 -121 0
-407 383 408 0
-407 493 408 0
-407 -121 383 0
407 -493 -383 0
407 121 -408 0
-408 409 414 0
-408 -493 -494 414 0
408 -414 0
408 493 -409 0
408 494 -409 0
-409 210 410 0
-409 -210 280 0
409 -210 -280 0
409 210 -410 0
-410 10 411 0
-410 -10 361 0
410 -10 -361 0
410 10 -411 0
-411 56 412 0
-411 -56 387 0
411 -56 -387 0
411 56 -412 0
-412 86 413 0
-412 -86 400 0
412 -86 -400 0
412 86 -413 0
413 -460 103 0
413 -459 -103 0
-413 459 -103 0
-413 460 103 0
-414 494 415 427 0
-414 396 415 427 0
414 -427 0
414 -415 0
414 -494 -396 0
415 493 -421 0
415 493 494 -416 0
-415 -493 0
-415 -494 421 0
-415 416 421 0
-416 210 417 0
-416 -210 294 0
416 -210 -294 0
416 210 -417 0
-417 10 418 0
-417 -10 378 0
417 -10 -378 0
417 10 -418 0
-418 56 419 0
-418 -56 399 0
418 -56 -399 0
418 56 -419 0
-419 86 420 0
-419 -86 413 0
419 -86 -413 0
419 86 -420 0
420 -462 103 0
420 -461 -103 0
-420 461 -103 0
-420 462 103 0
421 -210 -288 0
421 210 -422 0
-421 210 422 0
-421 -210 288 0
422 -10 -373 0
422 10 -423 0
-422 10 423 0
-422 -10 373 0
423 -56 -392 0
423 56 -424 0
-423 56 424 0
-423 -56 392 0
424 86 -425 0
424 -86 -426 0
-424 -86 426 0
-424 86 425 0
425 -461 103 0
425 -460 -103 0
-425 460 -103 0
-425 461 103 0
426 -459 103 0
426 -458 -103 0
-426 458 -103 0
-426 459 103 0
427 -210 -274 0
427 210 -428 0
-427 210 428 0
-427 -210 274 0
428 -10 -367 0
428 10 -429 0
-428 10 429 0
-428 -10 367 0
429 -56 -406 0
429 56 -430 0
-429 56 430 0
-429 -56 406 0
430 -86 -393 0
430 86 -426 0
-430 86 426 0
-430 -86 393 0
-495 0
2 0

